c FILE /home/rafael/Documents/HappySet/MIHS/inputs/happygen/output/graph_scale_free_k3_p0.1_v100_20241127_083806.txt
c SOURCE This is a scale-free graph formed for the happy graph colouring problem.
c DESCRIPTION It was generated using the problem generator of Rhyd Lewis
c
c GRAPH STATS
c Seed                             = 1036355742
c Number of Nodes                  = 100
c Number of colours k              = 3
c Number of pre-assignments        = 10
c Number of links per new node     = 5
c Density                          = 0.0979798
c 
c The degrees of nodes 1 to 100, respectively, are as follows 
c [40, 34, 29, 28, 26, 24, 23, 22, 22, 22, 21, 21, 18, 17, 17, 16, 16, 14, 13, 12, 11, 11, 10, 10, 10, 10, 
c  10, 10, 9, 9, 9, 9, 8, 8, 8, 8, 8, 8, 8, 8, 8, 8, 8, 8, 7, 7, 7, 7, 7, 7, 7, 
c  7, 7, 7, 7, 7, 6, 6, 6, 6, 6, 6, 6, 6, 6, 6, 6, 6, 6, 6, 6, 6, 6, 5, 5, 5, 
c  5, 5, 5, 5, 5, 5, 5, 5, 5, 5, 5, 5, 5, 5, 5, 5, 5, 5, 5, 5, 5, 5, 5, 5] 
c  
p edge 100 485 3
e 1 2
e 1 3
e 1 4
e 1 8
e 1 9
e 1 10
e 1 11
e 1 12
e 1 13
e 1 16
e 1 18
e 1 22
e 1 23
e 1 25
e 1 26
e 1 27
e 1 29
e 1 30
e 1 32
e 1 34
e 1 36
e 1 46
e 1 47
e 1 48
e 1 49
e 1 57
e 1 59
e 1 63
e 1 64
e 1 68
e 1 72
e 1 73
e 1 75
e 1 79
e 1 81
e 1 84
e 1 86
e 1 88
e 1 93
e 1 97
e 2 3
e 2 4
e 2 5
e 2 6
e 2 8
e 2 9
e 2 11
e 2 13
e 2 15
e 2 16
e 2 19
e 2 20
e 2 21
e 2 25
e 2 35
e 2 39
e 2 40
e 2 42
e 2 46
e 2 47
e 2 56
e 2 57
e 2 58
e 2 66
e 2 67
e 2 68
e 2 69
e 2 74
e 2 80
e 2 85
e 2 91
e 2 94
e 2 98
e 3 4
e 3 5
e 3 8
e 3 9
e 3 13
e 3 14
e 3 15
e 3 16
e 3 18
e 3 20
e 3 21
e 3 27
e 3 31
e 3 39
e 3 45
e 3 46
e 3 50
e 3 51
e 3 57
e 3 61
e 3 62
e 3 64
e 3 70
e 3 76
e 3 80
e 3 81
e 3 87
e 4 6
e 4 8
e 4 9
e 4 11
e 4 12
e 4 13
e 4 14
e 4 16
e 4 17
e 4 18
e 4 22
e 4 23
e 4 26
e 4 34
e 4 35
e 4 45
e 4 49
e 4 50
e 4 55
e 4 58
e 4 60
e 4 71
e 4 72
e 4 79
e 4 98
e 5 9
e 5 10
e 5 11
e 5 20
e 5 22
e 5 23
e 5 27
e 5 36
e 5 37
e 5 38
e 5 43
e 5 46
e 5 47
e 5 52
e 5 53
e 5 61
e 5 62
e 5 71
e 5 74
e 5 77
e 5 78
e 5 84
e 5 92
e 5 100
e 6 7
e 6 10
e 6 11
e 6 13
e 6 14
e 6 15
e 6 20
e 6 21
e 6 23
e 6 24
e 6 40
e 6 42
e 6 50
e 6 56
e 6 61
e 6 68
e 6 74
e 6 80
e 6 82
e 6 83
e 6 85
e 6 92
e 7 10
e 7 15
e 7 18
e 7 20
e 7 22
e 7 24
e 7 25
e 7 29
e 7 35
e 7 37
e 7 43
e 7 48
e 7 50
e 7 56
e 7 59
e 7 62
e 7 63
e 7 67
e 7 70
e 7 90
e 7 96
e 7 100
e 8 9
e 8 11
e 8 12
e 8 14
e 8 16
e 8 17
e 8 19
e 8 21
e 8 30
e 8 39
e 8 45
e 8 60
e 8 65
e 8 75
e 8 77
e 8 89
e 8 96
e 8 99
e 9 10
e 9 12
e 9 17
e 9 18
e 9 19
e 9 31
e 9 41
e 9 52
e 9 53
e 9 54
e 9 58
e 9 65
e 9 74
e 9 78
e 9 82
e 9 87
e 10 11
e 10 12
e 10 13
e 10 16
e 10 24
e 10 28
e 10 31
e 10 32
e 10 33
e 10 37
e 10 47
e 10 54
e 10 57
e 10 61
e 10 67
e 10 81
e 10 91
e 11 13
e 11 14
e 11 15
e 11 16
e 11 17
e 11 24
e 11 29
e 11 30
e 11 32
e 11 33
e 11 48
e 11 63
e 11 81
e 11 85
e 12 19
e 12 24
e 12 25
e 12 33
e 12 34
e 12 40
e 12 48
e 12 50
e 12 51
e 12 53
e 12 65
e 12 80
e 12 84
e 12 85
e 12 93
e 12 98
e 13 23
e 13 26
e 13 29
e 13 31
e 13 43
e 13 45
e 13 55
e 13 58
e 13 76
e 13 96
e 13 100
e 14 27
e 14 34
e 14 35
e 14 47
e 14 48
e 14 49
e 14 51
e 14 58
e 14 64
e 14 68
e 14 69
e 14 77
e 15 27
e 15 32
e 15 34
e 15 36
e 15 38
e 15 39
e 15 51
e 15 66
e 15 70
e 15 78
e 15 83
e 15 86
e 16 17
e 16 18
e 16 28
e 16 29
e 16 30
e 16 41
e 16 60
e 16 76
e 16 94
e 17 19
e 17 28
e 17 33
e 17 41
e 17 49
e 17 60
e 17 61
e 17 63
e 17 69
e 17 79
e 17 88
e 18 20
e 18 21
e 18 28
e 18 32
e 18 35
e 18 46
e 18 54
e 18 88
e 19 25
e 19 33
e 19 44
e 19 65
e 19 67
e 19 90
e 19 92
e 19 93
e 20 26
e 20 36
e 20 49
e 20 62
e 20 81
e 20 83
e 21 38
e 21 70
e 21 75
e 21 83
e 21 86
e 21 94
e 22 25
e 22 54
e 22 56
e 22 65
e 22 66
e 22 79
e 22 85
e 23 24
e 23 45
e 23 57
e 23 59
e 23 62
e 24 63
e 24 68
e 24 75
e 24 78
e 25 30
e 25 44
e 25 72
e 25 99
e 26 37
e 26 46
e 26 53
e 26 67
e 26 80
e 26 95
e 27 36
e 27 39
e 27 40
e 27 52
e 27 90
e 28 51
e 28 55
e 28 71
e 28 76
e 28 83
e 28 86
e 29 51
e 29 59
e 29 96
e 29 97
e 30 31
e 30 54
e 30 78
e 30 95
e 31 38
e 31 41
e 31 73
e 31 95
e 32 44
e 32 66
e 32 87
e 32 91
e 33 42
e 33 43
e 33 76
e 34 40
e 34 41
e 34 77
e 35 42
e 35 89
e 35 91
e 36 64
e 36 87
e 36 94
e 37 47
e 37 53
e 37 73
e 37 89
e 38 51
e 38 82
e 38 94
e 38 95
e 39 52
e 39 93
e 39 96
e 40 69
e 40 87
e 40 93
e 41 71
e 41 86
e 41 88
e 42 46
e 42 90
e 42 91
e 42 100
e 43 65
e 43 73
e 43 82
e 43 99
e 44 48
e 44 67
e 44 89
e 44 92
e 44 99
e 45 60
e 45 72
e 47 55
e 48 77
e 49 92
e 49 95
e 50 97
e 50 100
e 52 62
e 52 64
e 52 79
e 53 66
e 53 70
e 54 72
e 54 98
e 55 59
e 55 84
e 55 89
e 56 71
e 56 73
e 56 97
e 57 59
e 58 88
e 60 74
e 61 75
e 63 71
e 64 82
e 66 90
e 68 69
e 69 84
e 70 97
e 72 99
e 73 98
n 7 1
n 15 1
n 21 1
n 41 2
n 47 3
n 54 3
n 64 2
n 70 1
n 74 3
n 98 3
